35
1 0 4
2 0 5
2 1 9
3 0 2
3 1 9
3 2 9
4 0 9
4 1 3
4 2 10
4 3 2
5 0 5
5 1 2
5 2 1
5 3 3
5 4 7
6 0 5
6 1 10
6 2 2
6 3 3
6 4 5
6 5 8
7 0 1
7 1 9
7 2 9
7 3 4
7 4 6
7 5 9
7 6 2
8 0 7
8 1 6
8 2 10
8 3 6
8 4 5
8 5 8
8 6 3
8 7 10
9 0 10
9 1 8
9 2 2
9 3 6
9 4 10
9 5 8
9 6 4
9 7 8
9 8 6
10 0 8
10 1 1
10 2 3
10 3 8
10 4 7
10 5 1
10 6 8
10 7 2
10 8 10
10 9 7
11 0 6
11 1 4
11 2 9
11 3 5
11 4 6
11 5 3
11 6 5
11 7 4
11 8 7
11 9 6
11 10 7
12 0 1
12 1 2
12 2 3
12 3 8
12 4 10
12 5 5
12 6 1
12 7 1
12 8 6
12 9 7
12 10 4
12 11 1
13 0 2
13 1 10
13 2 6
13 3 6
13 4 9
13 5 4
13 6 9
13 7 7
13 8 3
13 9 2
13 10 9
13 11 4
13 12 3
14 0 8
14 1 6
14 2 2
14 3 8
14 4 9
14 5 1
14 6 10
14 7 9
14 8 5
14 9 4
14 10 10
14 11 3
14 12 1
14 13 1
15 0 10
15 1 1
15 2 9
15 3 7
15 4 9
15 5 3
15 6 4
15 7 2
15 8 1
15 9 5
15 10 6
15 11 3
15 12 10
15 13 2
15 14 8
16 0 1
16 1 3
16 2 4
16 3 4
16 4 4
16 5 5
16 6 1
16 7 3
16 8 8
16 9 7
16 10 6
16 11 2
16 12 5
16 13 3
16 14 4
16 15 6
17 0 4
17 1 7
17 2 8
17 3 2
17 4 5
17 5 6
17 6 9
17 7 2
17 8 1
17 9 2
17 10 8
17 11 10
17 12 4
17 13 6
17 14 7
17 15 9
17 16 2
18 0 7
18 1 3
18 2 3
18 3 1
18 4 2
18 5 4
18 6 1
18 7 4
18 8 8
18 9 10
18 10 8
18 11 5
18 12 9
18 13 9
18 14 7
18 15 3
18 16 8
18 17 6
19 0 2
19 1 2
19 2 1
19 3 3
19 4 6
19 5 6
19 6 4
19 7 1
19 8 5
19 9 10
19 10 7
19 11 9
19 12 9
19 13 1
19 14 10
19 15 3
19 16 4
19 17 9
19 18 8
20 0 6
20 1 5
20 2 2
20 3 4
20 4 6
20 5 8
20 6 10
20 7 8
20 8 6
20 9 5
20 10 10
20 11 5
20 12 7
20 13 3
20 14 3
20 15 2
20 16 2
20 17 8
20 18 9
20 19 1
21 0 3
21 1 5
21 2 5
21 3 7
21 4 10
21 5 8
21 6 8
21 7 2
21 8 2
21 9 4
21 10 8
21 11 2
21 12 5
21 13 8
21 14 9
21 15 4
21 16 4
21 17 10
21 18 4
21 19 6
21 20 3
22 0 5
22 1 8
22 2 7
22 3 7
22 4 6
22 5 8
22 6 6
22 7 6
22 8 1
22 9 3
22 10 3
22 11 10
22 12 9
22 13 6
22 14 10
22 15 2
22 16 5
22 17 4
22 18 7
22 19 9
22 20 8
22 21 10
23 0 4
23 1 6
23 2 8
23 3 1
23 4 10
23 5 4
23 6 7
23 7 6
23 8 9
23 9 2
23 10 3
23 11 10
23 12 3
23 13 6
23 14 1
23 15 6
23 16 3
23 17 1
23 18 8
23 19 6
23 20 3
23 21 3
23 22 4
24 0 10
24 1 5
24 2 2
24 3 2
24 4 3
24 5 7
24 6 6
24 7 7
24 8 6
24 9 1
24 10 9
24 11 6
24 12 10
24 13 10
24 14 9
24 15 7
24 16 2
24 17 5
24 18 6
24 19 2
24 20 7
24 21 3
24 22 2
24 23 7
25 0 9
25 1 2
25 2 1
25 3 7
25 4 8
25 5 7
25 6 7
25 7 7
25 8 9
25 9 1
25 10 3
25 11 1
25 12 3
25 13 2
25 14 5
25 15 1
25 16 5
25 17 3
25 18 3
25 19 2
25 20 2
25 21 6
25 22 9
25 23 7
25 24 8
26 0 5
26 1 9
26 2 8
26 3 3
26 4 7
26 5 1
26 6 6
26 7 4
26 8 1
26 9 6
26 10 10
26 11 5
26 12 3
26 13 6
26 14 6
26 15 7
26 16 9
26 17 1
26 18 1
26 19 1
26 20 4
26 21 3
26 22 8
26 23 9
26 24 10
26 25 5
27 0 4
27 1 10
27 2 7
27 3 2
27 4 2
27 5 1
27 6 1
27 7 7
27 8 5
27 9 10
27 10 3
27 11 9
27 12 2
27 13 5
27 14 10
27 15 9
27 16 7
27 17 3
27 18 4
27 19 7
27 20 9
27 21 7
27 22 1
27 23 4
27 24 5
27 25 10
27 26 7
28 0 2
28 1 3
28 2 7
28 3 9
28 4 6
28 5 9
28 6 4
28 7 1
28 8 3
28 9 7
28 10 8
28 11 6
28 12 9
28 13 8
28 14 7
28 15 9
28 16 4
28 17 4
28 18 10
28 19 8
28 20 5
28 21 5
28 22 4
28 23 4
28 24 2
28 25 2
28 26 10
28 27 4
29 0 7
29 1 2
29 2 3
29 3 8
29 4 5
29 5 5
29 6 5
29 7 9
29 8 5
29 9 5
29 10 6
29 11 7
29 12 8
29 13 2
29 14 3
29 15 6
29 16 10
29 17 2
29 18 6
29 19 4
29 20 7
29 21 9
29 22 3
29 23 3
29 24 9
29 25 10
29 26 3
29 27 10
29 28 9
30 0 3
30 1 5
30 2 1
30 3 8
30 4 4
30 5 2
30 6 9
30 7 9
30 8 8
30 9 3
30 10 2
30 11 10
30 12 5
30 13 9
30 14 5
30 15 4
30 16 8
30 17 2
30 18 7
30 19 3
30 20 10
30 21 8
30 22 4
30 23 3
30 24 9
30 25 9
30 26 5
30 27 3
30 28 1
30 29 5
31 0 4
31 1 2
31 2 9
31 3 3
31 4 10
31 5 7
31 6 10
31 7 5
31 8 10
31 9 4
31 10 3
31 11 8
31 12 2
31 13 10
31 14 4
31 15 7
31 16 10
31 17 3
31 18 3
31 19 2
31 20 7
31 21 8
31 22 6
31 23 10
31 24 5
31 25 4
31 26 9
31 27 6
31 28 1
31 29 7
31 30 9
32 0 10
32 1 6
32 2 8
32 3 5
32 4 7
32 5 2
32 6 7
32 7 1
32 8 2
32 9 6
32 10 3
32 11 6
32 12 3
32 13 10
32 14 5
32 15 6
32 16 10
32 17 8
32 18 10
32 19 10
32 20 2
32 21 5
32 22 7
32 23 3
32 24 2
32 25 5
32 26 10
32 27 3
32 28 7
32 29 9
32 30 7
32 31 10
33 0 5
33 1 2
33 2 1
33 3 6
33 4 6
33 5 3
33 6 10
33 7 3
33 8 10
33 9 7
33 10 1
33 11 7
33 12 3
33 13 3
33 14 1
33 15 10
33 16 4
33 17 7
33 18 9
33 19 4
33 20 9
33 21 2
33 22 1
33 23 4
33 24 10
33 25 5
33 26 10
33 27 7
33 28 7
33 29 6
33 30 8
33 31 5
33 32 10
34 0 1
34 1 8
34 2 9
34 3 2
34 4 5
34 5 3
34 6 7
34 7 10
34 8 10
34 9 7
34 10 2
34 11 4
34 12 7
34 13 7
34 14 7
34 15 3
34 16 7
34 17 9
34 18 7
34 19 6
34 20 8
34 21 7
34 22 8
34 23 2
34 24 1
34 25 3
34 26 3
34 27 2
34 28 10
34 29 8
34 30 3
34 31 6
34 32 1
34 33 1
